c generated by hgen
p cnf 33 88
21 22 1 0
-21 -22 1 0
21 -22 -1 0
-21 22 -1 0
1 23 2 0
-1 -23 2 0
1 -23 -2 0
-1 23 -2 0
2 24 3 0
-2 -24 3 0
2 -24 -3 0
-2 24 -3 0
3 25 4 0
-3 -25 4 0
3 -25 -4 0
-3 25 -4 0
4 26 5 0
-4 -26 5 0
4 -26 -5 0
-4 26 -5 0
5 27 6 0
-5 -27 6 0
5 -27 -6 0
-5 27 -6 0
6 28 7 0
-6 -28 7 0
6 -28 -7 0
-6 28 -7 0
7 29 8 0
-7 -29 8 0
7 -29 -8 0
-7 29 -8 0
8 30 9 0
-8 -30 9 0
8 -30 -9 0
-8 30 -9 0
9 31 10 0
-9 -31 10 0
9 -31 -10 0
-9 31 -10 0
10 32 33 0
-10 -32 33 0
10 -32 -33 0
-10 32 -33 0
11 32 33 0
-11 -32 33 0
11 -32 -33 0
-11 32 -33 0
12 31 11 0
-12 -31 11 0
12 -31 -11 0
-12 31 -11 0
13 30 12 0
-13 -30 12 0
13 -30 -12 0
-13 30 -12 0
14 29 13 0
-14 -29 13 0
14 -29 -13 0
-14 29 -13 0
15 28 14 0
-15 -28 14 0
15 -28 -14 0
-15 28 -14 0
16 27 15 0
-16 -27 15 0
16 -27 -15 0
-16 27 -15 0
17 26 16 0
-17 -26 16 0
17 -26 -16 0
-17 26 -16 0
18 25 17 0
-18 -25 17 0
18 -25 -17 0
-18 25 -17 0
19 24 18 0
-19 -24 18 0
19 -24 -18 0
-19 24 -18 0
20 23 19 0
-20 -23 19 0
20 -23 -19 0
-20 23 -19 0
21 22 -20 0
-21 -22 -20 0
21 -22 20 0
-21 22 20 0
